job_count = 40 ;
duration = [|13, 2, 19, 15, 12, 10, 10, 11|20, 19, 6, 5, 13, 8, 9, 6|12, 5, 13, 6, 2, 10, 9, 9|10, 2, 7, 13, 2, 5, 14, 10|6, 10, 11, 2, 7, 13, 8, 7|9, 13, 11, 19, 16, 10, 4, 8|17, 4, 15, 19, 6, 7, 10, 14|4, 20, 15, 8, 4, 14, 12, 4|8, 17, 9, 18, 14, 6, 5, 7|24, 15, 12, 3, 12, 7, 3, 3|18, 9, 21, 2, 13, 14, 12, 13|6, 7, 14, 4, 4, 9, 11, 6|5, 14, 15, 7, 8, 6, 12, 12|8, 17, 7, 18, 17, 16, 5, 2|16, 11, 11, 16, 6, 16, 11, 3|10, 16, 16, 18, 14, 6, 15, 3|19, 16, 20, 15, 17, 16, 2, 6|13, 6, 17, 18, 10, 15, 8, 6|4, 20, 18, 16, 3, 11, 12, 8|3, 19, 21, 9, 18, 5, 8, 11|12, 13, 17, 10, 4, 3, 15, 9|13, 7, 10, 2, 5, 11, 13, 7|7, 6, 17, 9, 2, 12, 8, 5|13, 11, 8, 12, 18, 15, 4, 3|12, 7, 16, 19, 15, 6, 2, 2|16, 20, 15, 19, 10, 16, 12, 9|14, 12, 2, 6, 7, 5, 5, 11|3, 12, 13, 18, 10, 8, 6, 3|6, 9, 13, 12, 18, 3, 13, 6|21, 8, 18, 15, 3, 5, 5, 8|16, 14, 3, 13, 16, 5, 7, 4|16, 4, 20, 14, 11, 8, 9, 9|3, 7, 3, 10, 12, 4, 4, 6|9, 21, 6, 19, 12, 9, 12, 9|13, 8, 11, 16, 9, 6, 15, 4|5, 6, 5, 20, 2, 3, 2, 14|7, 19, 6, 6, 7, 7, 9, 12|13, 8, 18, 6, 9, 14, 3, 4|17, 9, 19, 5, 10, 17, 2, 5|17, 19, 16, 15, 3, 16, 9, 2|] ;
machine_count = 8 ;
cost = [|24, 26, 31, 34, 35, 29, 44, 34|30, 32, 27, 26, 35, 35, 39, 42|28, 18, 26, 35, 39, 24, 41, 29|29, 31, 22, 30, 21, 22, 34, 49|19, 19, 25, 22, 23, 32, 33, 30|25, 17, 29, 24, 33, 30, 41, 27|18, 24, 33, 24, 24, 31, 24, 28|27, 23, 34, 25, 22, 29, 43, 51|28, 27, 22, 33, 37, 26, 25, 52|28, 22, 35, 34, 33, 25, 40, 32|18, 25, 28, 31, 38, 24, 32, 52|29, 22, 20, 20, 32, 42, 25, 45|23, 19, 30, 32, 37, 34, 25, 28|23, 21, 24, 28, 40, 22, 41, 44|18, 21, 24, 36, 39, 30, 40, 40|18, 30, 30, 28, 34, 30, 47, 53|21, 31, 18, 20, 34, 43, 24, 29|24, 20, 33, 33, 23, 34, 46, 51|17, 32, 32, 24, 37, 43, 28, 27|24, 33, 31, 33, 37, 35, 40, 48|27, 22, 32, 24, 31, 43, 42, 34|19, 27, 24, 23, 41, 36, 37, 48|28, 24, 19, 25, 41, 35, 27, 32|19, 29, 22, 23, 37, 24, 38, 53|27, 25, 30, 30, 36, 28, 47, 31|17, 30, 25, 37, 39, 28, 32, 27|16, 29, 27, 19, 29, 41, 27, 32|27, 20, 24, 26, 36, 25, 41, 33|30, 28, 26, 32, 31, 26, 35, 36|28, 28, 18, 25, 31, 37, 24, 33|27, 21, 21, 29, 39, 31, 24, 28|27, 27, 33, 22, 36, 25, 32, 31|31, 19, 29, 28, 25, 43, 29, 51|17, 17, 26, 23, 38, 28, 26, 41|25, 30, 29, 21, 39, 24, 46, 42|20, 17, 24, 19, 36, 27, 38, 34|26, 32, 26, 19, 39, 36, 43, 34|19, 22, 33, 31, 38, 30, 43, 52|21, 25, 31, 33, 34, 39, 28, 36|30, 23, 29, 37, 29, 43, 43, 43|] ;
deadline = [33, 33, 33, 33, 33, 33, 33, 33, 33, 33, 33, 33, 33, 33, 33, 33, 33, 33, 33, 33, 33, 33, 33, 33, 33, 33, 33, 33, 33, 33, 33, 33, 33, 33, 33, 33, 33, 33, 33, 33] ;
release = [0, 0, 0, 0, 0, 0, 0, 0, 0, 0, 0, 0, 0, 0, 0, 0, 0, 0, 0, 0, 0, 0, 0, 0, 0, 0, 0, 0, 0, 0, 0, 0, 0, 0, 0, 0, 0, 0, 0, 0] ;
resource = [|1, 1, 1, 1, 1, 1, 1, 1|8, 8, 8, 8, 8, 8, 8, 8|5, 5, 5, 5, 5, 5, 5, 5|2, 2, 2, 2, 2, 2, 2, 2|4, 4, 4, 4, 4, 4, 4, 4|3, 3, 3, 3, 3, 3, 3, 3|2, 2, 2, 2, 2, 2, 2, 2|2, 2, 2, 2, 2, 2, 2, 2|1, 1, 1, 1, 1, 1, 1, 1|9, 9, 9, 9, 9, 9, 9, 9|6, 6, 6, 6, 6, 6, 6, 6|7, 7, 7, 7, 7, 7, 7, 7|7, 7, 7, 7, 7, 7, 7, 7|2, 2, 2, 2, 2, 2, 2, 2|1, 1, 1, 1, 1, 1, 1, 1|3, 3, 3, 3, 3, 3, 3, 3|9, 9, 9, 9, 9, 9, 9, 9|8, 8, 8, 8, 8, 8, 8, 8|2, 2, 2, 2, 2, 2, 2, 2|1, 1, 1, 1, 1, 1, 1, 1|8, 8, 8, 8, 8, 8, 8, 8|3, 3, 3, 3, 3, 3, 3, 3|5, 5, 5, 5, 5, 5, 5, 5|5, 5, 5, 5, 5, 5, 5, 5|6, 6, 6, 6, 6, 6, 6, 6|1, 1, 1, 1, 1, 1, 1, 1|5, 5, 5, 5, 5, 5, 5, 5|9, 9, 9, 9, 9, 9, 9, 9|3, 3, 3, 3, 3, 3, 3, 3|2, 2, 2, 2, 2, 2, 2, 2|9, 9, 9, 9, 9, 9, 9, 9|3, 3, 3, 3, 3, 3, 3, 3|8, 8, 8, 8, 8, 8, 8, 8|2, 2, 2, 2, 2, 2, 2, 2|5, 5, 5, 5, 5, 5, 5, 5|9, 9, 9, 9, 9, 9, 9, 9|4, 4, 4, 4, 4, 4, 4, 4|4, 4, 4, 4, 4, 4, 4, 4|1, 1, 1, 1, 1, 1, 1, 1|2, 2, 2, 2, 2, 2, 2, 2|] ;
capacities = [10, 10, 10, 10, 10, 10, 10, 10] ;
